NAME : morphed18-5-24
COMMENT : Generated using the function morphInstances from the R-package netgen (Bossek,2015) - Number of clusters: 5 Alpha: 0.5
TYPE : TSP
DIMENSION : 18
EDGE_WEIGHT_TYPE : EUC_2D
NODE_COORD_SECTION
1 16.1796756406 60.1117194069
2 16.5292210644 34.2870573979
3 70.8604882831 12.2807336695
4 48.3414550354 71.0647403357
5 56.387684043 81.6846227739
6 88.6426269465 11.1222647611
7 25.5041264779 31.1196839954
8 79.4623293883 67.5850827135
9 82.1237876963 7.0393076211
10 17.9548432576 65.707910166
11 67.5633896369 62.2617380371
12 53.451830917 31.0107364869
13 71.7152538757 41.7614719188
14 72.9555189899 38.0740507543
15 27.8633891665 40.6927490787
16 84.753872513 33.3488828618
17 29.8794096844 94.5650316211
18 2.5674240939 45.7512597732
EOF
